NAME : n60w180.005.395.tour
COMMENT : Length = 395
COMMENT : Found by LKH [Keld Helsgaun] Tue May  2 05:19:06 2017
TYPE : TOUR
DIMENSION : 61
TOUR_SECTION
1
21
60
10
18
54
25
15
37
51
48
52
11
43
45
6
57
44
34
17
2
19
41
29
16
53
26
55
23
5
7
58
13
49
22
38
30
31
20
56
14
39
12
32
4
9
36
42
35
33
3
40
28
50
46
47
59
27
8
61
24
-1
EOF
